p cnf 33 88
a 8 14 0
e 1 2 3 4 5 6 7 9 10 11 12 13 15 16 17 18 19 20 21 22 23 24 25 26 27 28 29 30 31 32 33 0
-1 -2 -3 0
1 2 -3 0
-1 2 3 0
1 -2 3 0
5 -3 0
5 -4 0
3 4 -5 0
-7 2 0
-7 6 0
-2 -6 7 0
8 -6 -9 0
-8 6 -9 0
8 6 9 0
-8 -6 9 0
-10 9 0
-10 -3 0
-9 3 10 0
-7 -10 -11 0
7 10 -11 0
-7 10 11 0
7 -10 11 0
12 -2 0
12 -6 0
2 6 -12 0
13 -12 0
13 8 0
12 -8 -13 0
14 13 0
14 -1 0
-13 1 -14 0
-16 -14 0
-16 15 0
14 -15 16 0
19 17 0
19 18 0
-17 -18 -19 0
-20 -21 -22 0
20 21 -22 0
-20 21 22 0
20 -21 22 0
19 22 -23 0
-19 -22 -23 0
19 -22 23 0
-19 22 23 0
24 16 0
24 23 0
-16 -23 -24 0
25 -8 0
25 -3 0
8 3 -25 0
-12 4 -26 0
12 -4 -26 0
-12 -4 26 0
12 4 26 0
25 26 -27 0
-25 -26 -27 0
25 -26 27 0
-25 26 27 0
-3 1 -28 0
3 -1 -28 0
-3 -1 28 0
3 1 28 0
29 -28 0
29 -12 0
28 12 -29 0
-30 -27 0
-30 -29 0
27 29 30 0
24 30 -31 0
-24 -30 -31 0
24 -30 31 0
-24 30 31 0
11 -31 -32 0
-11 31 -32 0
11 31 32 0
-11 -31 32 0
-33 -5 0
-33 -32 0
5 32 33 0
-29 -27 -24 -2 0
19 6 25 0
-1 29 4 25 -10 0
1 -9 26 -19 -11 15 -16 0
17 -33 11 29 7 4 -19 0
4 -7 -5 28 1 23 0
10 -1 4 -27 0
18 6 16 0
33 0
